14,0	0,0	7,2	9,6	0,0	0,0	0,0	0,0	0,0	18,5
7,2	17,2	0,0	10,3	14,5	0,0	0,0	5,4	0,0	0,0
0,0	0,0	14,0	0,0	6,3	8,4	0,0	0,0	14,3	0,0
9,5	0,0	8,0	0,0	0,0	0,0	8,6	0,0	0,0	0,0
0,0	12,2	0,0	13,6	17,2	0,0	0,0	11,2	0,0	0,0
0,0	16,7	7,2	0,0	19,8	9,6	0,0	0,0	14,4	0,0
0,0	18,9	0,0	17,7	0,0	0,0	10,5	0,0	0,0	17,3
7,5	0,0	10,1	0,0	0,0	0,0	0,0	0,0	0,0	15,4
0,0	7,5	0,0	7,0	5,1	0,0	0,0	8,4	0,0	0,0
0,0	0,0	17,9	0,0	0,0	18,9	13,4	0,0	0,0	8,7
									
3,0	2,9	2,7	3,2	3,2	3,8	3,9	5,0	4,3	3,9
